n_boats=34;
n_periods=20;
capacity=[35,20,14,12,5,52,50,42,15,23,3,25,34,6,35,45,9,11,24,43,3,31,41,47,43,37,16,29,41,6,22,35,1,17];
crew=[14,7,7,7,3,12,15,16,4,5,1,9,6,1,10,11,3,3,6,24,1,16,10,21,20,9,3,5,9,3,6,7,1,7];
